27 69 51 71 65 30 31 88 7 18 59 98 42 15 41 22 2 40 58 13 95 92 85 93 99 96 6 89 
52 5 61 16 86 38 44 14 87 94 83 8 46 45 17 84 60 82 48 62 90 32 20 66 35 34 24 26 
53 28 12 76 77 3 79 81 33 50 
21 73 72 75 23 67 39 29 78 9 63 64 49 36 47 19 11 10 70 1 68 80 54 55 25 4 56 74 57 43 91 100 37 97 
